(set-option :auto_config false)
(set-option :smt.mbqi false)
(set-option :smt.case_split 3)
(set-option :smt.qi.eager_threshold 100.0)
(set-option :smt.delay_units true)
(set-option :smt.arith.solver 2)
(set-option :smt.arith.nl false)
(set-info :comment ";; Prelude")
(set-info :comment ";; AIR prelude")
(declare-sort %%Function%% 0)
(declare-sort FuelId 0)
(declare-sort Fuel 0)
(declare-const zero Fuel)
(declare-fun succ (Fuel) Fuel)
(declare-fun fuel_bool (FuelId) Bool)
(declare-fun fuel_bool_default (FuelId) Bool)
(declare-const fuel_defaults Bool)
(assert (=> fuel_defaults (forall ((id FuelId)) (! (= (fuel_bool id) (fuel_bool_default id)) :pattern ((fuel_bool id)) :qid prelude_fuel_defaults :skolemid skolem_prelude_fuel_defaults))))
(declare-sort Char 0)
(declare-fun char%from_unicode (Int) Char)
(declare-fun char%to_unicode (Char) Int)
(declare-sort StrSlice 0)
(declare-fun str%strslice_is_ascii (StrSlice) Bool)
(declare-fun str%strslice_len (StrSlice) Int)
(declare-fun str%strslice_get_char (StrSlice Int) Char)
(declare-fun str%new_strlit (Int) StrSlice)
(declare-fun str%from_strlit (StrSlice) Int)
(declare-sort Poly 0)
(declare-sort Height 0)
(declare-fun I (Int) Poly)
(declare-fun B (Bool) Poly)
(declare-fun %I (Poly) Int)
(declare-fun %B (Poly) Bool)
(declare-fun S (StrSlice) Poly)
(declare-fun %S (Poly) StrSlice)
(declare-fun C (Char) Poly)
(declare-fun %C (Poly) Char)
(declare-sort Type 0)
(declare-const BOOL Type)
(declare-const INT Type)
(declare-const NAT Type)
(declare-const STRSLICE Type)
(declare-const CHAR Type)
(declare-fun UINT (Int) Type)
(declare-fun SINT (Int) Type)
(declare-fun CONST_INT (Int) Type)
(declare-sort Dcr 0)
(declare-const $ Dcr)
(declare-fun REF (Dcr) Dcr)
(declare-fun MUT_REF (Dcr) Dcr)
(declare-fun BOX (Dcr) Dcr)
(declare-fun RC (Dcr) Dcr)
(declare-fun ARC (Dcr) Dcr)
(declare-fun GHOST (Dcr) Dcr)
(declare-fun TRACKED (Dcr) Dcr)
(declare-fun NEVER (Dcr) Dcr)
(declare-fun ARRAY (Dcr Type Dcr Type) Type)
(declare-fun SLICE (Dcr Type) Type)
(declare-fun has_type (Poly Type) Bool)
(declare-fun as_type (Poly Type) Poly)
(declare-fun mk_fun (%%Function%%) %%Function%%)
(declare-fun const_int (Type) Int)
(assert (forall ((i Int)) (! (= i (const_int (CONST_INT i))) :pattern ((CONST_INT i)) :qid prelude_type_id_const_int :skolemid skolem_prelude_type_id_const_int)))
(assert (forall ((b Bool)) (! (has_type (B b) BOOL) :pattern ((has_type (B b) BOOL)) :qid prelude_has_type_bool :skolemid skolem_prelude_has_type_bool)))
(assert (forall ((x Poly) (t Type)) (! (and (has_type (as_type x t) t) (=> (has_type x t) (= x (as_type x t)))) :pattern ((as_type x t)) :qid prelude_as_type :skolemid skolem_prelude_as_type)))
(assert (forall ((x %%Function%%)) (! (= (mk_fun x) x) :pattern ((mk_fun x)) :qid prelude_mk_fun :skolemid skolem_prelude_mk_fun)))
(assert (forall ((x Bool)) (! (= x (%B (B x))) :pattern ((B x)) :qid prelude_unbox_box_bool :skolemid skolem_prelude_unbox_box_bool)))
(assert (forall ((x Int)) (! (= x (%I (I x))) :pattern ((I x)) :qid prelude_unbox_box_int :skolemid skolem_prelude_unbox_box_int)))
(assert (forall ((x Poly)) (! (=> (has_type x BOOL) (= x (B (%B x)))) :pattern ((has_type x BOOL)) :qid prelude_box_unbox_bool :skolemid skolem_prelude_box_unbox_bool)))
(assert (forall ((x Poly)) (! (=> (has_type x INT) (= x (I (%I x)))) :pattern ((has_type x INT)) :qid prelude_box_unbox_int :skolemid skolem_prelude_box_unbox_int)))
(assert (forall ((x Poly)) (! (=> (has_type x NAT) (= x (I (%I x)))) :pattern ((has_type x NAT)) :qid prelude_box_unbox_nat :skolemid skolem_prelude_box_unbox_nat)))
(assert (forall ((bits Int) (x Poly)) (! (=> (has_type x (UINT bits)) (= x (I (%I x)))) :pattern ((has_type x (UINT bits))) :qid prelude_box_unbox_uint :skolemid skolem_prelude_box_unbox_uint)))
(assert (forall ((bits Int) (x Poly)) (! (=> (has_type x (SINT bits)) (= x (I (%I x)))) :pattern ((has_type x (SINT bits))) :qid prelude_box_unbox_sint :skolemid skolem_prelude_box_unbox_sint)))
(assert (forall ((x Int)) (! (= (str%from_strlit (str%new_strlit x)) x) :pattern ((str%new_strlit x)) :qid prelude_strlit_injective :skolemid skolem_prelude_strlit_injective)))
(assert (forall ((x Poly)) (! (=> (has_type x STRSLICE) (= x (S (%S x)))) :pattern ((has_type x STRSLICE)) :qid prelude_box_unbox_strslice :skolemid skolem_prelude_box_unbox_strslice)))
(assert (forall ((x StrSlice)) (! (= x (%S (S x))) :pattern ((S x)) :qid prelude_unbox_box_strslice :skolemid skolem_prelude_unbox_box_strslice)))
(assert (forall ((x StrSlice)) (! (has_type (S x) STRSLICE) :pattern ((has_type (S x) STRSLICE)) :qid prelude_has_type_strslice :skolemid skolem_prelude_has_type_strslice)))
(declare-fun ext_eq (Bool Type Poly Poly) Bool)
(assert (forall ((deep Bool) (t Type) (x Poly) (y Poly)) (! (= (= x y) (ext_eq deep t x y)) :pattern ((ext_eq deep t x y)) :qid prelude_ext_eq :skolemid skolem_prelude_ext_eq)))
(declare-const SZ Int)
(assert (or (= SZ 32) (= SZ 64)))
(declare-fun uHi (Int) Int)
(declare-fun iLo (Int) Int)
(declare-fun iHi (Int) Int)
(assert (= (uHi 8) 256))
(assert (= (uHi 16) 65536))
(assert (= (uHi 32) 4294967296))
(assert (= (uHi 64) 18446744073709551616))
(assert (= (uHi 128) (+ 1 340282366920938463463374607431768211455)))
(assert (= (iLo 8) (- 128)))
(assert (= (iLo 16) (- 32768)))
(assert (= (iLo 32) (- 2147483648)))
(assert (= (iLo 64) (- 9223372036854775808)))
(assert (= (iLo 128) (- 170141183460469231731687303715884105728)))
(assert (= (iHi 8) 128))
(assert (= (iHi 16) 32768))
(assert (= (iHi 32) 2147483648))
(assert (= (iHi 64) 9223372036854775808))
(assert (= (iHi 128) 170141183460469231731687303715884105728))
(declare-fun nClip (Int) Int)
(declare-fun uClip (Int Int) Int)
(declare-fun iClip (Int Int) Int)
(assert (forall ((i Int)) (! (and (<= 0 (nClip i)) (=> (<= 0 i) (= i (nClip i)))) :pattern ((nClip i)) :qid prelude_nat_clip :skolemid skolem_prelude_nat_clip)))
(assert (forall ((bits Int) (i Int)) (! (and (<= 0 (uClip bits i)) (< (uClip bits i) (uHi bits)) (=> (and (<= 0 i) (< i (uHi bits))) (= i (uClip bits i)))) :pattern ((uClip bits i)) :qid prelude_u_clip :skolemid skolem_prelude_u_clip)))
(assert (forall ((bits Int) (i Int)) (! (and (<= (iLo bits) (iClip bits i)) (< (iClip bits i) (iHi bits)) (=> (and (<= (iLo bits) i) (< i (iHi bits))) (= i (iClip bits i)))) :pattern ((iClip bits i)) :qid prelude_i_clip :skolemid skolem_prelude_i_clip)))
(declare-fun uInv (Int Int) Bool)
(declare-fun iInv (Int Int) Bool)
(assert (forall ((bits Int) (i Int)) (! (= (uInv bits i) (and (<= 0 i) (< i (uHi bits)))) :pattern ((uInv bits i)) :qid prelude_u_inv :skolemid skolem_prelude_u_inv)))
(assert (forall ((bits Int) (i Int)) (! (= (iInv bits i) (and (<= (iLo bits) i) (< i (iHi bits)))) :pattern ((iInv bits i)) :qid prelude_i_inv :skolemid skolem_prelude_i_inv)))
(assert (forall ((x Int)) (! (has_type (I x) INT) :pattern ((has_type (I x) INT)) :qid prelude_has_type_int :skolemid skolem_prelude_has_type_int)))
(assert (forall ((x Int)) (! (=> (<= 0 x) (has_type (I x) NAT)) :pattern ((has_type (I x) NAT)) :qid prelude_has_type_nat :skolemid skolem_prelude_has_type_nat)))
(assert (forall ((bits Int) (x Int)) (! (=> (uInv bits x) (has_type (I x) (UINT bits))) :pattern ((has_type (I x) (UINT bits))) :qid prelude_has_type_uint :skolemid skolem_prelude_has_type_uint)))
(assert (forall ((bits Int) (x Int)) (! (=> (iInv bits x) (has_type (I x) (SINT bits))) :pattern ((has_type (I x) (SINT bits))) :qid prelude_has_type_sint :skolemid skolem_prelude_has_type_sint)))
(assert (forall ((x Poly)) (! (=> (has_type x NAT) (<= 0 (%I x))) :pattern ((has_type x NAT)) :qid prelude_unbox_int :skolemid skolem_prelude_unbox_int)))
(assert (forall ((bits Int) (x Poly)) (! (=> (has_type x (UINT bits)) (uInv bits (%I x))) :pattern ((has_type x (UINT bits))) :qid prelude_unbox_uint :skolemid skolem_prelude_unbox_uint)))
(assert (forall ((bits Int) (x Poly)) (! (=> (has_type x (SINT bits)) (iInv bits (%I x))) :pattern ((has_type x (SINT bits))) :qid prelude_unbox_sint :skolemid skolem_prelude_unbox_sint)))
(declare-fun Add (Int Int) Int)
(declare-fun Sub (Int Int) Int)
(declare-fun Mul (Int Int) Int)
(declare-fun EucDiv (Int Int) Int)
(declare-fun EucMod (Int Int) Int)
(assert (forall ((x Int) (y Int)) (! (= (Add x y) (+ x y)) :pattern ((Add x y)) :qid prelude_add :skolemid skolem_prelude_add)))
(assert (forall ((x Int) (y Int)) (! (= (Sub x y) (- x y)) :pattern ((Sub x y)) :qid prelude_sub :skolemid skolem_prelude_sub)))
(assert (forall ((x Int) (y Int)) (! (= (Mul x y) (* x y)) :pattern ((Mul x y)) :qid prelude_mul :skolemid skolem_prelude_mul)))
(assert (forall ((x Int) (y Int)) (! (= (EucDiv x y) (div x y)) :pattern ((EucDiv x y)) :qid prelude_eucdiv :skolemid skolem_prelude_eucdiv)))
(assert (forall ((x Int) (y Int)) (! (= (EucMod x y) (mod x y)) :pattern ((EucMod x y)) :qid prelude_eucmod :skolemid skolem_prelude_eucmod)))
(assert (forall ((x Int) (y Int)) (! (=> (and (<= 0 x) (<= 0 y)) (<= 0 (Mul x y))) :pattern ((Mul x y)) :qid prelude_mul_nats :skolemid skolem_prelude_mul_nats)))
(assert (forall ((x Int) (y Int)) (! (=> (and (<= 0 x) (< 0 y)) (and (<= 0 (EucDiv x y)) (<= (EucDiv x y) x))) :pattern ((EucDiv x y)) :qid prelude_div_unsigned_in_bounds :skolemid skolem_prelude_div_unsigned_in_bounds)))
(assert (forall ((x Int) (y Int)) (! (=> (and (<= 0 x) (< 0 y)) (and (<= 0 (EucMod x y)) (< (EucMod x y) y))) :pattern ((EucMod x y)) :qid prelude_mod_unsigned_in_bounds :skolemid skolem_prelude_mod_unsigned_in_bounds)))
(assert (forall ((x Poly)) (! (=> (has_type x CHAR) (= x (C (%C x)))) :pattern ((has_type x CHAR)) :qid prelude_box_unbox_char :skolemid skolem_prelude_box_unbox_char)))
(assert (forall ((x Char)) (! (= x (%C (C x))) :pattern ((C x)) :qid prelude_unbox_box_char :skolemid skolem_prelude_unbox_box_char)))
(assert (forall ((x Char)) (! (has_type (C x) CHAR) :pattern ((has_type (C x) CHAR)) :qid prelude_has_type_char :skolemid skolem_prelude_has_type_char)))
(assert (forall ((x Int)) (! (=> (and (<= 0 x) (< x (uHi 32))) (= x (char%to_unicode (char%from_unicode x)))) :pattern ((char%from_unicode x)) :qid prelude_char_injective :skolemid skolem_prelude_char_injective)))
(assert (forall ((c Char)) (! (and (<= 0 (char%to_unicode c)) (< (char%to_unicode c) (uHi 32))) :pattern ((char%to_unicode c)) :qid prelude_to_unicode_bounds :skolemid skolem_prelude_to_unicode_bounds)))
(declare-fun height (Poly) Height)
(declare-fun height_lt (Height Height) Bool)
(assert (forall ((x Height) (y Height)) (! (= (height_lt x y) (and ((_ partial-order 0) x y) (not (= x y)))) :pattern ((height_lt x y)) :qid prelude_height_lt :skolemid skolem_prelude_height_lt)))
(declare-fun fun_from_recursive_field (Poly) Poly)
(declare-fun check_decrease_int (Int Int Bool) Bool)
(assert (forall ((cur Int) (prev Int) (otherwise Bool)) (! (= (check_decrease_int cur prev otherwise) (or (and (<= 0 cur) (< cur prev)) (and (= cur prev) otherwise))) :pattern ((check_decrease_int cur prev otherwise)) :qid prelude_check_decrease_int :skolemid skolem_prelude_check_decrease_int)))
(declare-fun check_decrease_height (Poly Poly Bool) Bool)
(assert (forall ((cur Poly) (prev Poly) (otherwise Bool)) (! (= (check_decrease_height cur prev otherwise) (or (height_lt (height cur) (height prev)) (and (= (height cur) (height prev)) otherwise))) :pattern ((check_decrease_height cur prev otherwise)) :qid prelude_check_decrease_height :skolemid skolem_prelude_check_decrease_height)))
(declare-fun uintxor (Int Poly Poly) Int)
(declare-fun uintand (Int Poly Poly) Int)
(declare-fun uintor (Int Poly Poly) Int)
(declare-fun uintshr (Int Poly Poly) Int)
(declare-fun uintshl (Int Poly Poly) Int)
(declare-fun uintnot (Int Poly) Int)
(declare-fun singular_mod (Int Int) Int)
(assert (forall ((x Int) (y Int)) (! (=> (not (= y 0)) (= (EucMod x y) (singular_mod x y))) :pattern ((singular_mod x y)) :qid prelude_singularmod :skolemid skolem_prelude_singularmod)))
(declare-fun closure_req (Type Dcr Type Poly Poly) Bool)
(declare-fun closure_ens (Type Dcr Type Poly Poly Poly) Bool)
(set-info :comment ";; MODULE 'root module'")
(set-info :comment ";; Fuel")
(assert true)
(set-info :comment ";; Datatypes")
(declare-datatypes ((tuple%0. 0)) (((tuple%0./tuple%0 ))))
(declare-const TYPE%tuple%0. Type)
(declare-fun Poly%tuple%0. (tuple%0.) Poly)
(declare-fun %Poly%tuple%0. (Poly) tuple%0.)
(assert (forall ((x@ tuple%0.)) (! (= x@ (%Poly%tuple%0. (Poly%tuple%0. x@))) :pattern ((Poly%tuple%0. x@)) :qid internal_crate__tuple__0_box_axiom_definition :skolemid skolem_internal_crate__tuple__0_box_axiom_definition)))
(assert (forall ((x@ Poly)) (! (=> (has_type x@ TYPE%tuple%0.) (= x@ (Poly%tuple%0. (%Poly%tuple%0. x@)))) :pattern ((has_type x@ TYPE%tuple%0.)) :qid internal_crate__tuple__0_unbox_axiom_definition :skolemid skolem_internal_crate__tuple__0_unbox_axiom_definition)))
(assert (forall ((x@ tuple%0.)) (! (has_type (Poly%tuple%0. x@) TYPE%tuple%0.) :pattern ((has_type (Poly%tuple%0. x@) TYPE%tuple%0.)) :qid internal_crate__tuple__0_has_type_always_definition :skolemid skolem_internal_crate__tuple__0_has_type_always_definition)))
(set-info :comment ";; Function-Specs main::nl_basics::lemma_mul_is_associative")
(declare-fun ens%main!nl_basics.lemma_mul_is_associative. (Int Int Int) Bool)
(assert (forall ((x~2@ Int) (y~4@ Int) (z~6@ Int)) (! (= (ens%main!nl_basics.lemma_mul_is_associative. x~2@ y~4@ z~6@) (= (Mul x~2@ (Mul y~4@ z~6@)) (Mul (Mul x~2@ y~4@) z~6@))) :pattern ((ens%main!nl_basics.lemma_mul_is_associative. x~2@ y~4@ z~6@)) :qid internal_ens__main!nl_basics.lemma_mul_is_associative._definition :skolemid skolem_internal_ens__main!nl_basics.lemma_mul_is_associative._definition)))
(set-info :comment ";; Function-Specs main::nl_basics::lemma_mul_is_commutative")
(declare-fun ens%main!nl_basics.lemma_mul_is_commutative. (Int Int) Bool)
(assert (forall ((x~2@ Int) (y~4@ Int)) (! (= (ens%main!nl_basics.lemma_mul_is_commutative. x~2@ y~4@) (= (Mul x~2@ y~4@) (Mul y~4@ x~2@))) :pattern ((ens%main!nl_basics.lemma_mul_is_commutative. x~2@ y~4@)) :qid internal_ens__main!nl_basics.lemma_mul_is_commutative._definition :skolemid skolem_internal_ens__main!nl_basics.lemma_mul_is_commutative._definition)))
(set-info :comment ";; Function-Def main::inst_0")
(set-info :comment ";; mariposa_data/v_nl//1763281984466661887/nlqi_verus/src/main.rs:7:1: 36:40 (#0)")
(push 1)
(declare-const a0~2@ Int)
(declare-const b0~4@ Int)
(declare-const c0~6@ Int)
(declare-const d0~8@ Int)
(declare-const a1~10@ Int)
(declare-const b1~12@ Int)
(declare-const c1~14@ Int)
(declare-const d1~16@ Int)
(declare-const a2~18@ Int)
(declare-const b2~20@ Int)
(declare-const c2~22@ Int)
(declare-const d2~24@ Int)
(declare-const a3~26@ Int)
(declare-const b3~28@ Int)
(declare-const c3~30@ Int)
(declare-const d3~32@ Int)
(declare-const a4~34@ Int)
(declare-const b4~36@ Int)
(declare-const c4~38@ Int)
(declare-const d4~40@ Int)
(declare-const a5~42@ Int)
(declare-const b5~44@ Int)
(declare-const c5~46@ Int)
(declare-const d5~48@ Int)
(declare-const a6~50@ Int)
(declare-const b6~52@ Int)
(declare-const c6~54@ Int)
(declare-const d6~56@ Int)
(declare-const a7~58@ Int)
(declare-const b7~60@ Int)
(declare-const c7~62@ Int)
(declare-const d7~64@ Int)
(declare-const a8~66@ Int)
(declare-const b8~68@ Int)
(declare-const c8~70@ Int)
(declare-const d8~72@ Int)
(declare-const a9~74@ Int)
(declare-const b9~76@ Int)
(declare-const c9~78@ Int)
(declare-const d9~80@ Int)
(declare-const a10~82@ Int)
(declare-const b10~84@ Int)
(declare-const c10~86@ Int)
(declare-const d10~88@ Int)
(declare-const a11~90@ Int)
(declare-const b11~92@ Int)
(declare-const c11~94@ Int)
(declare-const d11~96@ Int)
(declare-const a12~98@ Int)
(declare-const b12~100@ Int)
(declare-const c12~102@ Int)
(declare-const d12~104@ Int)
(declare-const a13~106@ Int)
(declare-const b13~108@ Int)
(declare-const c13~110@ Int)
(declare-const d13~112@ Int)
(declare-const a14~114@ Int)
(declare-const b14~116@ Int)
(declare-const c14~118@ Int)
(declare-const d14~120@ Int)
(declare-const a15~122@ Int)
(declare-const b15~124@ Int)
(declare-const c15~126@ Int)
(declare-const d15~128@ Int)
(declare-const a16~130@ Int)
(declare-const b16~132@ Int)
(declare-const c16~134@ Int)
(declare-const d16~136@ Int)
(declare-const a17~138@ Int)
(declare-const b17~140@ Int)
(declare-const c17~142@ Int)
(declare-const d17~144@ Int)
(declare-const a18~146@ Int)
(declare-const b18~148@ Int)
(declare-const c18~150@ Int)
(declare-const d18~152@ Int)
(declare-const a19~154@ Int)
(declare-const b19~156@ Int)
(declare-const c19~158@ Int)
(declare-const d19~160@ Int)
(declare-const a20~162@ Int)
(declare-const b20~164@ Int)
(declare-const c20~166@ Int)
(declare-const d20~168@ Int)
(declare-const a21~170@ Int)
(declare-const b21~172@ Int)
(declare-const c21~174@ Int)
(declare-const d21~176@ Int)
(declare-const a22~178@ Int)
(declare-const b22~180@ Int)
(declare-const c22~182@ Int)
(declare-const d22~184@ Int)
(declare-const a23~186@ Int)
(declare-const b23~188@ Int)
(declare-const c23~190@ Int)
(declare-const d23~192@ Int)
(declare-const a24~194@ Int)
(declare-const b24~196@ Int)
(declare-const c24~198@ Int)
(declare-const d24~200@ Int)
(declare-const a25~202@ Int)
(declare-const b25~204@ Int)
(declare-const c25~206@ Int)
(declare-const d25~208@ Int)
(declare-const a26~210@ Int)
(declare-const b26~212@ Int)
(declare-const c26~214@ Int)
(declare-const d26~216@ Int)
(declare-const a27~218@ Int)
(declare-const b27~220@ Int)
(declare-const c27~222@ Int)
(declare-const d27~224@ Int)
(declare-const a28~226@ Int)
(declare-const b28~228@ Int)
(declare-const c28~230@ Int)
(declare-const d28~232@ Int)
(declare-const a29~234@ Int)
(declare-const b29~236@ Int)
(declare-const c29~238@ Int)
(declare-const d29~240@ Int)
(declare-const tmp%1@ Int)
(declare-const tmp%2@ Int)
(declare-const tmp%3@ Int)
(declare-const tmp%4@ Int)
(declare-const tmp%5@ Int)
(declare-const tmp%6@ Int)
(declare-const tmp%7@ Int)
(declare-const tmp%8@ Int)
(declare-const tmp%9@ Int)
(declare-const tmp%10@ Int)
(declare-const tmp%11@ Int)
(declare-const tmp%12@ Int)
(declare-const tmp%13@ Int)
(declare-const tmp%14@ Int)
(declare-const tmp%15@ Int)
(declare-const tmp%16@ Int)
(declare-const tmp%17@ Int)
(declare-const tmp%18@ Int)
(declare-const tmp%19@ Int)
(declare-const tmp%20@ Int)
(declare-const tmp%21@ Int)
(declare-const tmp%22@ Int)
(declare-const tmp%23@ Int)
(declare-const tmp%24@ Int)
(declare-const tmp%25@ Int)
(declare-const tmp%26@ Int)
(declare-const tmp%27@ Int)
(declare-const temp_0_0~317@ Int)
(declare-const temp_0_1~394@ Int)
(declare-const temp_1_0~493@ Int)
(declare-const temp_1_1~558@ Int)
(declare-const temp_2_0~663@ Int)
(declare-const temp_2_1~740@ Int)
(declare-const temp_3_0~829@ Int)
(declare-const temp_3_1~890@ Int)
(declare-const temp_4_0~995@ Int)
(declare-const temp_4_1~1072@ Int)
(declare-const temp_5_0~1223@ Int)
(declare-const temp_5_1~1280@ Int)
(declare-const temp_6_0~1381@ Int)
(declare-const temp_6_1~1434@ Int)
(declare-const temp_7_0~1577@ Int)
(declare-const temp_7_1~1650@ Int)
(declare-const temp_8_0~1755@ Int)
(declare-const temp_8_1~1832@ Int)
(declare-const temp_9_0~1959@ Int)
(declare-const temp_9_1~2024@ Int)
(declare-const temp_10_0~2141@ Int)
(declare-const temp_10_1~2206@ Int)
(declare-const temp_11_0~2295@ Int)
(declare-const temp_11_1~2332@ Int)
(declare-const temp_12_0~2453@ Int)
(declare-const temp_12_1~2518@ Int)
(declare-const temp_13_0~2619@ Int)
(declare-const temp_13_1~2684@ Int)
(declare-const temp_14_0~2811@ Int)
(declare-const temp_14_1~2888@ Int)
(declare-const temp_15_0~3011@ Int)
(declare-const temp_15_1~3088@ Int)
(declare-const temp_16_0~3197@ Int)
(declare-const temp_16_1~3258@ Int)
(assert fuel_defaults)
(set-info :comment ";; assertion failed")
(declare-const %%location_label%%0 Bool)
(set-info :comment ";; assertion failed")
(declare-const %%location_label%%1 Bool)
(set-info :comment ";; assertion failed")
(declare-const %%location_label%%2 Bool)
(set-info :comment ";; assertion failed")
(declare-const %%location_label%%3 Bool)
(set-info :comment ";; assertion failed")
(declare-const %%location_label%%4 Bool)
(set-info :comment ";; assertion failed")
(declare-const %%location_label%%5 Bool)
(set-info :comment ";; assertion failed")
(declare-const %%location_label%%6 Bool)
(set-info :comment ";; assertion failed")
(declare-const %%location_label%%7 Bool)
(set-info :comment ";; assertion failed")
(declare-const %%location_label%%8 Bool)
(set-info :comment ";; assertion failed")
(declare-const %%location_label%%9 Bool)
(set-info :comment ";; assertion failed")
(declare-const %%location_label%%10 Bool)
(set-info :comment ";; assertion failed")
(declare-const %%location_label%%11 Bool)
(set-info :comment ";; assertion failed")
(declare-const %%location_label%%12 Bool)
(set-info :comment ";; assertion failed")
(declare-const %%location_label%%13 Bool)
(set-info :comment ";; assertion failed")
(declare-const %%location_label%%14 Bool)
(set-info :comment ";; assertion failed")
(declare-const %%location_label%%15 Bool)
(set-info :comment ";; assertion failed")
(declare-const %%location_label%%16 Bool)
(declare-const %%query%% Bool)
(assert (=> %%query%% (not (=> (= temp_0_0~317@ (Mul (Mul (Add (Add b0~4@ b0~4@) (Mul 11 a0~2@)) (Mul (Mul c0~6@ a0~2@) (Mul d0~8@ a0~2@))) (Mul (Mul (Mul a0~2@ b0~4@) (Mul c0~6@ b0~4@)) (Mul (Mul d0~8@ c0~6@) (Mul a0~2@ a0~2@))))) (=> (= temp_0_1~394@ (Mul (Mul (Add (Add b0~4@ b0~4@) (Mul 11 a0~2@)) (Mul (Mul c0~6@ a0~2@) (Mul d0~8@ a0~2@))) (Mul (Mul (Mul (Mul a0~2@ b0~4@) c0~6@) b0~4@) (Mul (Mul d0~8@ c0~6@) (Mul a0~2@ a0~2@))))) (and (=> (= tmp%1@ (Mul a0~2@ b0~4@)) (=> (ens%main!nl_basics.lemma_mul_is_associative. tmp%1@ c0~6@ b0~4@) (=> %%location_label%%0 (= temp_0_0~317@ temp_0_1~394@)))) (=> (= temp_0_0~317@ temp_0_1~394@) (=> (= temp_1_0~493@ (Mul (Mul (Mul (Mul d1~16@ a1~10@) (Mul a1~10@ c1~14@)) (Mul (Mul a1~10@ c1~14@) (Mul c1~14@ a1~10@))) (Add (Mul (Mul a1~10@ d1~16@) (Mul d1~16@ c1~14@)) (Sub (Mul c1~14@ c1~14@) (Mul b1~12@ c1~14@))))) (=> (= temp_1_1~558@ (Mul (Mul (Mul (Mul a1~10@ d1~16@) (Mul a1~10@ c1~14@)) (Mul (Mul a1~10@ c1~14@) (Mul c1~14@ a1~10@))) (Add (Mul (Mul a1~10@ d1~16@) (Mul d1~16@ c1~14@)) (Sub (Mul c1~14@ c1~14@) (Mul b1~12@ c1~14@))))) (and (=> (ens%main!nl_basics.lemma_mul_is_commutative. d1~16@ a1~10@) (=> %%location_label%%1 (= temp_1_0~493@ temp_1_1~558@))) (=> (= temp_1_0~493@ temp_1_1~558@) (=> (= temp_2_0~663@ (Mul (Sub (Add (Mul c2~22@ b2~20@) (Mul a2~18@ c2~22@)) (Mul (Sub a2~18@ a2~18@) (Mul c2~22@ a2~18@))) (Mul (Mul (Mul b2~20@ a2~18@) (Mul b2~20@ a2~18@)) (Add (Mul d2~24@ 19) (Mul d2~24@ c2~22@))))) (=> (= temp_2_1~740@ (Mul (Sub (Add (Mul c2~22@ b2~20@) (Mul a2~18@ c2~22@)) (Mul (Sub a2~18@ a2~18@) (Mul c2~22@ a2~18@))) (Mul (Mul (Mul b2~20@ a2~18@) (Mul b2~20@ a2~18@)) (Add (Mul d2~24@ 19) (Mul c2~22@ d2~24@))))) (and (=> (ens%main!nl_basics.lemma_mul_is_commutative. d2~24@ c2~22@) (=> %%location_label%%2 (= temp_2_0~663@ temp_2_1~740@))) (=> (= temp_2_0~663@ temp_2_1~740@) (=> (= temp_3_0~829@ (Mul (Sub b3~28@ (Sub (Mul d3~32@ c3~30@) (Mul a3~26@ c3~30@))) (Mul (Mul (Mul d3~32@ 73) (Mul b3~28@ c3~30@)) (Mul (Mul c3~30@ b3~28@) a3~26@)))) (=> (= temp_3_1~890@ (Mul (Sub b3~28@ (Sub (Mul d3~32@ c3~30@) (Mul a3~26@ c3~30@))) (Mul (Mul (Mul d3~32@ 73) (Mul b3~28@ c3~30@)) (Mul (Mul b3~28@ c3~30@) a3~26@)))) (and (=> (ens%main!nl_basics.lemma_mul_is_commutative. c3~30@ b3~28@) (=> %%location_label%%3 (= temp_3_0~829@ temp_3_1~890@))) (=> (= temp_3_0~829@ temp_3_1~890@) (=> (= temp_4_0~995@ (Mul (Mul (Mul (Mul b4~36@ a4~34@) (Mul b4~36@ d4~40@)) (Sub (Mul c4~38@ a4~34@) (Mul b4~36@ d4~40@))) (Mul (Mul (Mul c4~38@ d4~40@) (Add c4~38@ 71)) (Mul (Mul b4~36@ d4~40@) (Add d4~40@ b4~36@))))) (=> (= temp_4_1~1072@ (Mul (Mul (Mul (Mul (Mul b4~36@ a4~34@) (Mul b4~36@ d4~40@)) (Sub (Mul c4~38@ a4~34@) (Mul b4~36@ d4~40@))) (Mul (Mul c4~38@ d4~40@) (Add c4~38@ 71))) (Mul (Mul b4~36@ d4~40@) (Add d4~40@ b4~36@)))) (and (=> (= tmp%2@ (Mul (Mul (Mul b4~36@ a4~34@) (Mul b4~36@ d4~40@)) (Sub (Mul c4~38@ a4~34@) (Mul b4~36@ d4~40@)))) (=> (= tmp%3@ (Mul (Mul c4~38@ d4~40@) (Add c4~38@ 71))) (=> (= tmp%4@ (Mul (Mul b4~36@ d4~40@) (Add d4~40@ b4~36@))) (=> (ens%main!nl_basics.lemma_mul_is_associative. tmp%2@ tmp%3@ tmp%4@) (=> %%location_label%%4 (= temp_4_0~995@ temp_4_1~1072@)))))) (=> (= temp_4_0~995@ temp_4_1~1072@) (=> (= temp_5_0~1223@ (Mul (Mul (Add (Mul c5~46@ d5~48@) (Add d5~48@ c5~46@)) (Add (Sub d5~48@ c5~46@) d5~48@)) (Mul (Mul (Mul c5~46@ d5~48@) (Mul d5~48@ d5~48@)) (Mul c5~46@ (Mul c5~46@ c5~46@))))) (=> (= temp_5_1~1280@ (Mul (Mul (Add (Sub d5~48@ c5~46@) d5~48@) (Add (Mul c5~46@ d5~48@) (Add d5~48@ c5~46@))) (Mul (Mul (Mul c5~46@ d5~48@) (Mul d5~48@ d5~48@)) (Mul c5~46@ (Mul c5~46@ c5~46@))))) (and (=> (= tmp%5@ (Add (Mul c5~46@ d5~48@) (Add d5~48@ c5~46@))) (=> (= tmp%6@ (Add (Sub d5~48@ c5~46@) d5~48@)) (=> (ens%main!nl_basics.lemma_mul_is_commutative. tmp%5@ tmp%6@) (=> %%location_label%%5 (= temp_5_0~1223@ temp_5_1~1280@))))) (=> (= temp_5_0~1223@ temp_5_1~1280@) (=> (= temp_6_0~1381@ (Mul (Mul (Add (Add c6~54@ c6~54@) (Mul d6~56@ d6~56@)) d6~56@) (Mul (Mul (Mul a6~50@ d6~56@) (Mul b6~52@ a6~50@)) (Mul (Mul a6~50@ b6~52@) (Add c6~54@ c6~54@))))) (=> (= temp_6_1~1434@ (Mul (Mul (Mul (Add (Add c6~54@ c6~54@) (Mul d6~56@ d6~56@)) d6~56@) (Mul (Mul a6~50@ d6~56@) (Mul b6~52@ a6~50@))) (Mul (Mul a6~50@ b6~52@) (Add c6~54@ c6~54@)))) (and (=> (= tmp%7@ (Mul (Add (Add c6~54@ c6~54@) (Mul d6~56@ d6~56@)) d6~56@)) (=> (= tmp%8@ (Mul (Mul a6~50@ d6~56@) (Mul b6~52@ a6~50@))) (=> (= tmp%9@ (Mul (Mul a6~50@ b6~52@) (Add c6~54@ c6~54@))) (=> (ens%main!nl_basics.lemma_mul_is_associative. tmp%7@ tmp%8@ tmp%9@) (=> %%location_label%%6 (= temp_6_0~1381@ temp_6_1~1434@)))))) (=> (= temp_6_0~1381@ temp_6_1~1434@) (=> (= temp_7_0~1577@ (Sub (Sub (Mul d7~64@ (Mul a7~58@ d7~64@)) (Mul (Mul a7~58@ b7~60@) (Mul c7~62@ c7~62@))) (Sub (Sub (Sub c7~62@ 16) (Mul c7~62@ d7~64@)) (Mul (Mul a7~58@ b7~60@) (Add b7~60@ b7~60@))))) (=> (= temp_7_1~1650@ (Sub (Sub (Mul d7~64@ (Mul a7~58@ d7~64@)) (Mul (Mul b7~60@ a7~58@) (Mul c7~62@ c7~62@))) (Sub (Sub (Sub c7~62@ 16) (Mul c7~62@ d7~64@)) (Mul (Mul a7~58@ b7~60@) (Add b7~60@ b7~60@))))) (and (=> (ens%main!nl_basics.lemma_mul_is_commutative. a7~58@ b7~60@) (=> %%location_label%%7 (= temp_7_0~1577@ temp_7_1~1650@))) (=> (= temp_7_0~1577@ temp_7_1~1650@) (=> (= temp_8_0~1755@ (Mul (Sub (Mul (Mul a8~66@ b8~68@) (Mul b8~68@ b8~68@)) (Mul (Mul a8~66@ a8~66@) (Mul c8~70@ d8~72@))) (Mul (Mul (Mul b8~68@ 32) (Mul c8~70@ d8~72@)) (Mul (Mul a8~66@ a8~66@) (Mul d8~72@ b8~68@))))) (=> (= temp_8_1~1832@ (Mul (Sub (Mul (Mul a8~66@ b8~68@) (Mul b8~68@ b8~68@)) (Mul (Mul a8~66@ a8~66@) (Mul c8~70@ d8~72@))) (Mul (Mul b8~68@ 32) (Mul (Mul c8~70@ d8~72@) (Mul (Mul a8~66@ a8~66@) (Mul d8~72@ b8~68@)))))) (and (=> (= tmp%10@ (Mul b8~68@ 32)) (=> (= tmp%11@ (Mul c8~70@ d8~72@)) (=> (= tmp%12@ (Mul (Mul a8~66@ a8~66@) (Mul d8~72@ b8~68@))) (=> (ens%main!nl_basics.lemma_mul_is_associative. tmp%10@ tmp%11@ tmp%12@) (=> %%location_label%%8 (= temp_8_0~1755@ temp_8_1~1832@)))))) (=> (= temp_8_0~1755@ temp_8_1~1832@) (=> (= temp_9_0~1959@ (Mul (Mul (Sub (Mul d9~80@ c9~78@) (Mul d9~80@ c9~78@)) (Mul (Mul d9~80@ a9~74@) (Mul d9~80@ d9~80@))) (Mul (Sub (Mul c9~78@ c9~78@) (Sub c9~78@ d9~80@)) (Mul (Add c9~78@ c9~78@) (Mul b9~76@ a9~74@))))) (=> (= temp_9_1~2024@ (Mul (Mul (Mul (Mul d9~80@ a9~74@) (Mul d9~80@ d9~80@)) (Sub (Mul d9~80@ c9~78@) (Mul d9~80@ c9~78@))) (Mul (Sub (Mul c9~78@ c9~78@) (Sub c9~78@ d9~80@)) (Mul (Add c9~78@ c9~78@) (Mul b9~76@ a9~74@))))) (and (=> (= tmp%13@ (Sub (Mul d9~80@ c9~78@) (Mul d9~80@ c9~78@))) (=> (= tmp%14@ (Mul (Mul d9~80@ a9~74@) (Mul d9~80@ d9~80@))) (=> (ens%main!nl_basics.lemma_mul_is_commutative. tmp%13@ tmp%14@) (=> %%location_label%%9 (= temp_9_0~1959@ temp_9_1~2024@))))) (=> (= temp_9_0~1959@ temp_9_1~2024@) (=> (= temp_10_0~2141@ (Add (Mul (Mul (Mul b10~84@ a10~82@) (Mul b10~84@ c10~86@)) (Mul (Mul b10~84@ b10~84@) (Mul c10~86@ c10~86@))) (Mul (Mul (Add a10~82@ d10~88@) (Mul d10~88@ a10~82@)) (Add (Mul a10~82@ d10~88@) (Mul c10~86@ a10~82@))))) (=> (= temp_10_1~2206@ (Add (Mul (Mul (Mul b10~84@ b10~84@) (Mul c10~86@ c10~86@)) (Mul (Mul b10~84@ a10~82@) (Mul b10~84@ c10~86@))) (Mul (Mul (Add a10~82@ d10~88@) (Mul d10~88@ a10~82@)) (Add (Mul a10~82@ d10~88@) (Mul c10~86@ a10~82@))))) (and (=> (= tmp%15@ (Mul (Mul b10~84@ a10~82@) (Mul b10~84@ c10~86@))) (=> (= tmp%16@ (Mul (Mul b10~84@ b10~84@) (Mul c10~86@ c10~86@))) (=> (ens%main!nl_basics.lemma_mul_is_commutative. tmp%15@ tmp%16@) (=> %%location_label%%10 (= temp_10_0~2141@ temp_10_1~2206@))))) (=> (= temp_10_0~2141@ temp_10_1~2206@) (=> (= temp_11_0~2295@ (Mul (Add (Mul (Mul b11~92@ c11~94@) (Mul a11~90@ b11~92@)) (Mul (Sub a11~90@ d11~96@) (Mul a11~90@ d11~96@))) b11~92@)) (=> (= temp_11_1~2332@ (Mul b11~92@ (Add (Mul (Mul b11~92@ c11~94@) (Mul a11~90@ b11~92@)) (Mul (Sub a11~90@ d11~96@) (Mul a11~90@ d11~96@))))) (and (=> (= tmp%17@ (Add (Mul (Mul b11~92@ c11~94@) (Mul a11~90@ b11~92@)) (Mul (Sub a11~90@ d11~96@) (Mul a11~90@ d11~96@)))) (=> (ens%main!nl_basics.lemma_mul_is_commutative. tmp%17@ b11~92@) (=> %%location_label%%11 (= temp_11_0~2295@ temp_11_1~2332@)))) (=> (= temp_11_0~2295@ temp_11_1~2332@) (=> (= temp_12_0~2453@ (Sub (Mul (Mul (Mul d12~104@ b12~100@) (Mul d12~104@ a12~98@)) (Mul (Sub a12~98@ c12~102@) (Mul b12~100@ b12~100@))) (Mul (Mul (Sub c12~102@ a12~98@) (Sub d12~104@ a12~98@)) (Mul (Mul a12~98@ d12~104@) (Sub b12~100@ d12~104@))))) (=> (= temp_12_1~2518@ (Sub (Mul (Mul (Mul d12~104@ b12~100@) (Mul d12~104@ a12~98@)) (Mul (Mul b12~100@ b12~100@) (Sub a12~98@ c12~102@))) (Mul (Mul (Sub c12~102@ a12~98@) (Sub d12~104@ a12~98@)) (Mul (Mul a12~98@ d12~104@) (Sub b12~100@ d12~104@))))) (and (=> (= tmp%18@ (Sub a12~98@ c12~102@)) (=> (= tmp%19@ (Mul b12~100@ b12~100@)) (=> (ens%main!nl_basics.lemma_mul_is_commutative. tmp%18@ tmp%19@) (=> %%location_label%%12 (= temp_12_0~2453@ temp_12_1~2518@))))) (=> (= temp_12_0~2453@ temp_12_1~2518@) (=> (= temp_13_0~2619@ (Mul (Mul (Mul (Mul c13~110@ d13~112@) (Add b13~108@ c13~110@)) (Mul (Mul c13~110@ c13~110@) (Mul c13~110@ b13~108@))) (Add (Mul (Mul a13~106@ d13~112@) (Mul b13~108@ a13~106@)) (Mul (Mul d13~112@ d13~112@) (Add a13~106@ a13~106@))))) (=> (= temp_13_1~2684@ (Mul (Mul (Mul c13~110@ d13~112@) (Mul (Add b13~108@ c13~110@) (Mul (Mul c13~110@ c13~110@) (Mul c13~110@ b13~108@)))) (Add (Mul (Mul a13~106@ d13~112@) (Mul b13~108@ a13~106@)) (Mul (Mul d13~112@ d13~112@) (Add a13~106@ a13~106@))))) (and (=> (= tmp%20@ (Mul c13~110@ d13~112@)) (=> (= tmp%21@ (Add b13~108@ c13~110@)) (=> (= tmp%22@ (Mul (Mul c13~110@ c13~110@) (Mul c13~110@ b13~108@))) (=> (ens%main!nl_basics.lemma_mul_is_associative. tmp%20@ tmp%21@ tmp%22@) (=> %%location_label%%13 (= temp_13_0~2619@ temp_13_1~2684@)))))) (=> (= temp_13_0~2619@ temp_13_1~2684@) (=> (= temp_14_0~2811@ (Mul (Mul (Mul (Mul a14~114@ a14~114@) (Mul d14~120@ b14~116@)) (Mul (Sub 90 a14~114@) (Mul b14~116@ a14~114@))) (Mul (Mul (Mul a14~114@ b14~116@) (Mul d14~120@ a14~114@)) (Mul (Mul a14~114@ d14~120@) (Mul c14~118@ b14~116@))))) (=> (= temp_14_1~2888@ (Mul (Mul (Mul (Mul a14~114@ a14~114@) (Mul d14~120@ b14~116@)) (Mul (Mul (Sub 90 a14~114@) b14~116@) a14~114@)) (Mul (Mul (Mul a14~114@ b14~116@) (Mul d14~120@ a14~114@)) (Mul (Mul a14~114@ d14~120@) (Mul c14~118@ b14~116@))))) (and (=> (= tmp%23@ (Sub 90 a14~114@)) (=> (ens%main!nl_basics.lemma_mul_is_associative. tmp%23@ b14~116@ a14~114@) (=> %%location_label%%14 (= temp_14_0~2811@ temp_14_1~2888@)))) (=> (= temp_14_0~2811@ temp_14_1~2888@) (=> (= temp_15_0~3011@ (Mul (Mul (Add (Sub c15~126@ c15~126@) (Mul d15~128@ a15~122@)) (Mul (Mul a15~122@ 80) (Mul d15~128@ d15~128@))) (Mul (Mul (Mul b15~124@ d15~128@) (Mul b15~124@ c15~126@)) (Mul (Mul a15~122@ d15~128@) (Mul a15~122@ d15~128@))))) (=> (= temp_15_1~3088@ (Mul (Mul (Add (Sub c15~126@ c15~126@) (Mul d15~128@ a15~122@)) (Mul (Mul d15~128@ d15~128@) (Mul a15~122@ 80))) (Mul (Mul (Mul b15~124@ d15~128@) (Mul b15~124@ c15~126@)) (Mul (Mul a15~122@ d15~128@) (Mul a15~122@ d15~128@))))) (and (=> (= tmp%24@ (Mul a15~122@ 80)) (=> (= tmp%25@ (Mul d15~128@ d15~128@)) (=> (ens%main!nl_basics.lemma_mul_is_commutative. tmp%24@ tmp%25@) (=> %%location_label%%15 (= temp_15_0~3011@ temp_15_1~3088@))))) (=> (= temp_15_0~3011@ temp_15_1~3088@) (=> (= temp_16_0~3197@ (Add (Mul (Mul (Mul c16~134@ d16~136@) (Mul b16~132@ b16~132@)) (Add (Mul b16~132@ d16~136@) (Mul c16~134@ b16~132@))) (Sub (Mul a16~130@ (Sub c16~134@ a16~130@)) (Mul (Sub b16~132@ d16~136@) (Mul c16~134@ a16~130@))))) (=> (= temp_16_1~3258@ (Add (Mul (Mul (Mul c16~134@ d16~136@) (Mul b16~132@ b16~132@)) (Add (Mul b16~132@ d16~136@) (Mul c16~134@ b16~132@))) (Sub (Mul a16~130@ (Sub c16~134@ a16~130@)) (Mul (Mul c16~134@ a16~130@) (Sub b16~132@ d16~136@))))) (=> (= tmp%26@ (Sub b16~132@ d16~136@)) (=> (= tmp%27@ (Mul c16~134@ a16~130@)) (=> (ens%main!nl_basics.lemma_mul_is_commutative. tmp%26@ tmp%27@) (=> %%location_label%%16 (= temp_16_0~3197@ temp_16_1~3258@))))))))))))))))))))))))))))))))))))))))))))))))))))))))))))))))))))))))))
(assert %%query%%)
(check-sat)
